c 1 Claroline
c 2 User
c 3 Course
c 4 Subscription
c 5 UnregistredUser
c 6 RegisteredUser
c 7 Access
c 8 Registration
c 9 Visibility
c 10 Tools
c 11 Status
c 12 LostPassword
c 13 OpenSubscription
c 14 Admin
c 15 Teacher
c 16 Student
c 17 FreeAccess
c 18 IdentifiedAccess
c 19 MemberAccess
c 20 AllowedRegistration
c 21 RegistrationDenied
c 22 PublicVisibility
c 23 MembersVisibility
c 24 CourseIndex
c 25 CourseDescription
c 26 CourseAgenda
c 27 CourseAnnoucements
c 28 CourseDocument
c 29 CourseExercise
c 30 CourseLearnPath
c 31 CourseWork
c 32 CourseForum
c 33 CourseGroup
c 34 CourseUser
c 35 CourseWiki
c 36 CourseDiscussion
c 37 Available
c 38 AvailableFromTo
c 39 Unavailable
c 40 WithValidationRegistration
c 41 WithKeyRegistration
c 42 ReactivableByOwner
c 43 ReactivableByAdmin
c 44 Deleted
p cnf 44 196
1 0
2 0
3 0
4 0
7 0
8 0
9 0
10 0
11 0
24 0
5 6 0
-5 -6 0
-14 6 0
-15 6 0
-16 6 0
-6 14 15 16 0
-14 -15 0
-14 -16 0
-15 -16 0
17 18 19 0
-17 -18 0
-17 -19 0
-18 -19 0
20 21 0
-20 -21 0
22 23 0
-22 -23 0
37 38 39 0
-37 -38 0
-37 -39 0
-38 -39 0
-40 20 0
-41 20 0
-42 39 0
-43 39 0
-44 39 0
-39 42 43 44 0
-42 -43 0
-42 -44 0
-43 -44 0
-26 37 38 14 42 0
-26 37 38 14 15 0
-26 37 38 23 14 42 0
-26 37 38 23 14 15 0
-26 37 38 6 14 42 0
-26 37 38 6 14 15 0
-26 22 37 38 14 42 0
-26 22 37 38 14 15 0
-26 22 23 14 42 0
-26 22 23 14 15 0
-26 22 6 14 42 0
-26 22 6 14 15 0
-27 37 38 14 42 0
-27 37 38 14 15 0
-27 37 38 23 14 42 0
-27 37 38 23 14 15 0
-27 37 38 6 14 42 0
-27 37 38 6 14 15 0
-27 22 37 38 14 42 0
-27 22 37 38 14 15 0
-27 22 23 14 42 0
-27 22 23 14 15 0
-27 22 6 14 42 0
-27 22 6 14 15 0
-25 37 38 14 42 0
-25 37 38 14 15 0
-25 37 38 23 14 42 0
-25 37 38 23 14 15 0
-25 37 38 6 14 42 0
-25 37 38 6 14 15 0
-25 22 37 38 14 42 0
-25 22 37 38 14 15 0
-25 22 23 14 42 0
-25 22 23 14 15 0
-25 22 6 14 42 0
-25 22 6 14 15 0
-36 37 38 14 42 0
-36 37 38 14 15 0
-36 37 38 23 14 42 0
-36 37 38 23 14 15 0
-36 37 38 6 14 42 0
-36 37 38 6 14 15 0
-36 22 37 38 14 42 0
-36 22 37 38 14 15 0
-36 22 23 14 42 0
-36 22 23 14 15 0
-36 22 6 14 42 0
-36 22 6 14 15 0
-28 37 38 14 42 0
-28 37 38 14 15 0
-28 37 38 23 14 42 0
-28 37 38 23 14 15 0
-28 37 38 6 14 42 0
-28 37 38 6 14 15 0
-28 22 37 38 14 42 0
-28 22 37 38 14 15 0
-28 22 23 14 42 0
-28 22 23 14 15 0
-28 22 6 14 42 0
-28 22 6 14 15 0
-29 37 38 14 42 0
-29 37 38 14 15 0
-29 37 38 23 14 42 0
-29 37 38 23 14 15 0
-29 37 38 6 14 42 0
-29 37 38 6 14 15 0
-29 22 37 38 14 42 0
-29 22 37 38 14 15 0
-29 22 23 14 42 0
-29 22 23 14 15 0
-29 22 6 14 42 0
-29 22 6 14 15 0
-32 37 38 14 42 0
-32 37 38 14 15 0
-32 37 38 23 14 42 0
-32 37 38 23 14 15 0
-32 37 38 6 14 42 0
-32 37 38 6 14 15 0
-32 22 37 38 14 42 0
-32 22 37 38 14 15 0
-32 22 23 14 42 0
-32 22 23 14 15 0
-32 22 6 14 42 0
-32 22 6 14 15 0
-33 37 38 14 42 0
-33 37 38 14 15 0
-33 37 38 23 14 42 0
-33 37 38 23 14 15 0
-33 37 38 6 14 42 0
-33 37 38 6 14 15 0
-33 22 37 38 14 42 0
-33 22 37 38 14 15 0
-33 22 23 14 42 0
-33 22 23 14 15 0
-33 22 6 14 42 0
-33 22 6 14 15 0
37 38 14 42 0
37 38 14 15 0
37 38 23 14 42 0
37 38 23 14 15 0
37 38 6 14 42 0
37 38 6 14 15 0
22 37 38 14 42 0
22 37 38 14 15 0
22 23 14 42 0
22 23 14 15 0
22 6 14 42 0
22 6 14 15 0
-30 37 38 14 42 0
-30 37 38 14 15 0
-30 37 38 23 14 42 0
-30 37 38 23 14 15 0
-30 37 38 6 14 42 0
-30 37 38 6 14 15 0
-30 22 37 38 14 42 0
-30 22 37 38 14 15 0
-30 22 23 14 42 0
-30 22 23 14 15 0
-30 22 6 14 42 0
-30 22 6 14 15 0
-34 37 38 14 42 0
-34 37 38 14 15 0
-34 37 38 23 14 42 0
-34 37 38 23 14 15 0
-34 37 38 6 14 42 0
-34 37 38 6 14 15 0
-34 22 37 38 14 42 0
-34 22 37 38 14 15 0
-34 22 23 14 42 0
-34 22 23 14 15 0
-34 22 6 14 42 0
-34 22 6 14 15 0
-35 37 38 14 42 0
-35 37 38 14 15 0
-35 37 38 23 14 42 0
-35 37 38 23 14 15 0
-35 37 38 6 14 42 0
-35 37 38 6 14 15 0
-35 22 37 38 14 42 0
-35 22 37 38 14 15 0
-35 22 23 14 42 0
-35 22 23 14 15 0
-35 22 6 14 42 0
-35 22 6 14 15 0
-31 37 38 14 42 0
-31 37 38 14 15 0
-31 37 38 23 14 42 0
-31 37 38 23 14 15 0
-31 37 38 6 14 42 0
-31 37 38 6 14 15 0
-31 22 37 38 14 42 0
-31 22 37 38 14 15 0
-31 22 23 14 42 0
-31 22 23 14 15 0
-31 22 6 14 42 0
-31 22 6 14 15 0
